Route #1: 4 26 10 11 16 39 17
Route #2: 34 37 42 32 21 5 28 7
Route #3: 41 14 13 43 1 35 18 20
Route #4: 2 22 36 29 6 3
Route #5: 15 27 33 24 19 8 31
Route #6: 12 25 30 23 40 9 38
cost 1070.2625732421875